(declare-fun tobool.not.i1.i_7_44 () (_ BitVec 1))
(declare-fun src_reg1.sroa.13.0.copyload_7_42 () (_ BitVec 64))
(declare-fun src_reg_7_21 () (_ BitVec 64))
(declare-fun src_reg1.sroa.45.0.copyload_7_41 () (_ BitVec 64))
(declare-fun src_reg_7_25 () (_ BitVec 64))
(declare-fun src_reg1.sroa.37.0.copyload_7_40 () (_ BitVec 64))
(declare-fun src_reg_7_24 () (_ BitVec 64))
(declare-fun src_reg1.sroa.34.0.copyload_7_39 () (_ BitVec 64))
(declare-fun src_reg_7_23 () (_ BitVec 64))
(declare-fun src_reg1.sroa.27.0.copyload_7_38 () (_ BitVec 64))
(declare-fun src_reg_7_22 () (_ BitVec 64))
(declare-fun src_reg_7_35 () (_ BitVec 8))
(declare-fun src_reg_7_34 () (_ BitVec 32))
(declare-fun src_reg_7_33 () (_ BitVec 32))
(declare-fun src_reg_7_32 () (_ BitVec 32))
(declare-fun src_reg_7_31 () (_ BitVec 32))
(declare-fun src_reg_7_30 () (_ BitVec 32))
(declare-fun src_reg_7_29 () (_ BitVec 32))
(declare-fun src_reg_7_28 () (_ BitVec 32))
(declare-fun src_reg_7_27 () (_ BitVec 32))
(declare-fun src_reg_7_26 () (_ BitVec 32))
(declare-fun src_reg_7_20 () (_ BitVec 64))
(declare-fun src_reg_7_19 () (_ BitVec 32))
(declare-fun src_reg_7_18 () (_ BitVec 32))
(declare-fun dst_reg_7_17 () (_ BitVec 8))
(declare-fun dst_reg_7_16 () (_ BitVec 32))
(declare-fun dst_reg_7_15 () (_ BitVec 32))
(declare-fun dst_reg_7_14 () (_ BitVec 32))
(declare-fun dst_reg_7_13 () (_ BitVec 32))
(declare-fun dst_reg_7_12 () (_ BitVec 32))
(declare-fun dst_reg_7_11 () (_ BitVec 32))
(declare-fun dst_reg_7_10 () (_ BitVec 32))
(declare-fun dst_reg_7_9 () (_ BitVec 32))
(declare-fun dst_reg_7_8 () (_ BitVec 32))
(declare-fun dst_reg_7_7 () (_ BitVec 64))
(declare-fun dst_reg_7_6 () (_ BitVec 64))
(declare-fun dst_reg_7_5 () (_ BitVec 64))
(declare-fun dst_reg_7_4 () (_ BitVec 64))
(declare-fun dst_reg_7_3 () (_ BitVec 64))
(declare-fun dst_reg_7_2 () (_ BitVec 64))
(declare-fun dst_reg_7_1 () (_ BitVec 32))
(declare-fun dst_reg_7_0 () (_ BitVec 32))
(declare-fun cmp42.i_7_51 () (_ BitVec 1))
(declare-fun or.cond85.i_7_53 () (_ BitVec 1))
(declare-fun or.cond84.i_7_50 () (_ BitVec 1))
(declare-fun or.cond83.i_7_48 () (_ BitVec 1))
(declare-fun cmp39.i_7_49 () (_ BitVec 1))
(declare-fun cmp36.not.i_7_46 () (_ BitVec 1))
(declare-fun cmp33.not.i_7_45 () (_ BitVec 1))
(declare-fun cmp42.old.i_7_55 () (_ BitVec 1))
(declare-fun or.cond86.i_7_57 () (_ BitVec 1))
(declare-fun cmp39.old.i_7_54 () (_ BitVec 1))
(declare-fun cmp116.not.i_7_89 () (_ BitVec 1))
(declare-fun and.i.i.i.i.i841.i31_7_126 () (_ BitVec 64))
(declare-fun cond35.i.i.i894.i_7_137 () (_ BitVec 64))
(declare-fun shr4.i.i_7_112 () (_ BitVec 64))
(declare-fun cmp31.i11.i.i893.i_7_136 () (_ BitVec 1))
(declare-fun shr.i.i826.i_7_107 () (_ BitVec 64))
(declare-fun cond23.i.i.i889.i_7_135 () (_ BitVec 64))
(declare-fun shr.i831.i_7_110 () (_ BitVec 64))
(declare-fun cmp19.i9.i.i888.i_7_134 () (_ BitVec 1))
(declare-fun and7.i.i.i882.i_7_132 () (_ BitVec 64))
(declare-fun or8.i.i.i883.i_7_133 () (_ BitVec 64))
(declare-fun shr5.i.i827.i_7_108 () (_ BitVec 64))
(declare-fun and.i4.i.i876.i_7_129 () (_ BitVec 64))
(declare-fun or.i5.i.i877.i_7_130 () (_ BitVec 64))
(declare-fun conv29.i.i.i867.i_7_127 () (_ BitVec 32))
(declare-fun conv17.i.i.i861.i_7_125 () (_ BitVec 32))
(declare-fun or6.i.i.i855.i_7_123 () (_ BitVec 64))
(declare-fun conv7.i.i.i856.i_7_124 () (_ BitVec 32))
(declare-fun and5.i.i.i854.i_7_122 () (_ BitVec 64))
(declare-fun or.i.i.i848.i_7_119 () (_ BitVec 64))
(declare-fun conv.i.i.i849.i_7_120 () (_ BitVec 32))
(declare-fun and.i.i.i847.i_7_118 () (_ BitVec 64))
(declare-fun i19.i832.i_7_111 () (_ BitVec 64))
(declare-fun i18.i830.i_7_109 () (_ BitVec 64))
(declare-fun sh_prom.i.i825.i_7_106 () (_ BitVec 64))
(declare-fun i15.i824.i_7_104 () (_ BitVec 64))
(declare-fun i13.i822.i_7_103 () (_ BitVec 64))
(declare-fun src_reg_7_209 () (_ BitVec 8))
(declare-fun src_reg_7_173 () (_ BitVec 8))
(declare-fun src_reg_7_208 () (_ BitVec 32))
(declare-fun src_reg_7_172 () (_ BitVec 32))
(declare-fun src_reg_7_207 () (_ BitVec 32))
(declare-fun src_reg_7_171 () (_ BitVec 32))
(declare-fun src_reg_7_206 () (_ BitVec 32))
(declare-fun src_reg_7_170 () (_ BitVec 32))
(declare-fun src_reg_7_205 () (_ BitVec 32))
(declare-fun src_reg_7_169 () (_ BitVec 32))
(declare-fun src_reg_7_204 () (_ BitVec 32))
(declare-fun src_reg_7_168 () (_ BitVec 32))
(declare-fun src_reg_7_203 () (_ BitVec 32))
(declare-fun src_reg_7_167 () (_ BitVec 32))
(declare-fun src_reg_7_202 () (_ BitVec 32))
(declare-fun src_reg_7_166 () (_ BitVec 32))
(declare-fun src_reg_7_201 () (_ BitVec 32))
(declare-fun src_reg_7_165 () (_ BitVec 32))
(declare-fun src_reg_7_200 () (_ BitVec 32))
(declare-fun src_reg_7_164 () (_ BitVec 32))
(declare-fun src_reg_7_199 () (_ BitVec 64))
(declare-fun src_reg_7_163 () (_ BitVec 64))
(declare-fun src_reg_7_198 () (_ BitVec 64))
(declare-fun src_reg_7_162 () (_ BitVec 64))
(declare-fun src_reg_7_197 () (_ BitVec 64))
(declare-fun src_reg_7_161 () (_ BitVec 64))
(declare-fun src_reg_7_196 () (_ BitVec 64))
(declare-fun src_reg_7_160 () (_ BitVec 64))
(declare-fun src_reg_7_195 () (_ BitVec 64))
(declare-fun src_reg_7_159 () (_ BitVec 64))
(declare-fun src_reg_7_194 () (_ BitVec 64))
(declare-fun src_reg_7_158 () (_ BitVec 64))
(declare-fun src_reg_7_193 () (_ BitVec 32))
(declare-fun src_reg_7_157 () (_ BitVec 32))
(declare-fun src_reg_7_192 () (_ BitVec 32))
(declare-fun src_reg_7_156 () (_ BitVec 32))
(declare-fun dst_reg_7_191 () (_ BitVec 8))
(declare-fun dst_reg_7_155 () (_ BitVec 8))
(declare-fun dst_reg_7_190 () (_ BitVec 32))
(declare-fun dst_reg_7_154 () (_ BitVec 32))
(declare-fun dst_reg_7_189 () (_ BitVec 32))
(declare-fun dst_reg_7_153 () (_ BitVec 32))
(declare-fun dst_reg_7_188 () (_ BitVec 32))
(declare-fun dst_reg_7_152 () (_ BitVec 32))
(declare-fun dst_reg_7_187 () (_ BitVec 32))
(declare-fun dst_reg_7_151 () (_ BitVec 32))
(declare-fun dst_reg_7_186 () (_ BitVec 32))
(declare-fun dst_reg_7_150 () (_ BitVec 32))
(declare-fun dst_reg_7_185 () (_ BitVec 32))
(declare-fun dst_reg_7_149 () (_ BitVec 32))
(declare-fun dst_reg_7_184 () (_ BitVec 32))
(declare-fun dst_reg_7_148 () (_ BitVec 32))
(declare-fun dst_reg_7_183 () (_ BitVec 32))
(declare-fun dst_reg_7_147 () (_ BitVec 32))
(declare-fun dst_reg_7_182 () (_ BitVec 32))
(declare-fun dst_reg_7_146 () (_ BitVec 32))
(declare-fun dst_reg_7_181 () (_ BitVec 64))
(declare-fun dst_reg_7_145 () (_ BitVec 64))
(declare-fun dst_reg_7_180 () (_ BitVec 64))
(declare-fun dst_reg_7_144 () (_ BitVec 64))
(declare-fun dst_reg_7_179 () (_ BitVec 64))
(declare-fun dst_reg_7_143 () (_ BitVec 64))
(declare-fun dst_reg_7_178 () (_ BitVec 64))
(declare-fun dst_reg_7_142 () (_ BitVec 64))
(declare-fun dst_reg_7_177 () (_ BitVec 64))
(declare-fun dst_reg_7_141 () (_ BitVec 64))
(declare-fun dst_reg_7_176 () (_ BitVec 64))
(declare-fun dst_reg_7_140 () (_ BitVec 64))
(declare-fun dst_reg_7_175 () (_ BitVec 32))
(declare-fun dst_reg_7_139 () (_ BitVec 32))
(declare-fun dst_reg_7_174 () (_ BitVec 32))
(declare-fun dst_reg_7_138 () (_ BitVec 32))
(assert (let ((a!1 (and (= cmp116.not.i_7_89 #b1)
                (and (= or.cond85.i_7_53 #b0) (= tobool.not.i1.i_7_44 #b1))))
      (a!2 (and (= cmp116.not.i_7_89 #b0)
                (and (= or.cond85.i_7_53 #b0) (= tobool.not.i1.i_7_44 #b1))))
      (a!3 (or (and (= or.cond86.i_7_57 #b1) (= tobool.not.i1.i_7_44 #b0))
               (and (= or.cond85.i_7_53 #b1) (= tobool.not.i1.i_7_44 #b1))))
      (a!4 (and (= #x00000001 src_reg_7_156)
                (= src_reg_7_19 src_reg_7_157)
                (= src_reg_7_20 src_reg_7_158)
                (= src_reg_7_21 src_reg_7_159)
                (= src_reg_7_22 src_reg_7_160)
                (= src_reg_7_23 src_reg_7_161)
                (= src_reg_7_24 src_reg_7_162)
                (= src_reg_7_25 src_reg_7_163)
                (= src_reg_7_26 src_reg_7_164)
                (= src_reg_7_27 src_reg_7_165)
                (= src_reg_7_28 src_reg_7_166)
                (= src_reg_7_29 src_reg_7_167)
                (= src_reg_7_30 src_reg_7_168)
                (= src_reg_7_31 src_reg_7_169)
                (= src_reg_7_32 src_reg_7_170)
                (= src_reg_7_33 src_reg_7_171)
                (= src_reg_7_34 src_reg_7_172)
                (= src_reg_7_35 src_reg_7_173)
                (= #x00000001 dst_reg_7_138)
                (= dst_reg_7_1 dst_reg_7_139)
                (= #x0000000000000000 dst_reg_7_140)
                (= #xffffffffffffffff dst_reg_7_141)
                (= #x8000000000000000 dst_reg_7_142)
                (= #x7fffffffffffffff dst_reg_7_143)
                (= #x0000000000000000 dst_reg_7_144)
                (= #xffffffffffffffff dst_reg_7_145)
                (= #x80000000 dst_reg_7_146)
                (= #x7fffffff dst_reg_7_147)
                (= #x00000000 dst_reg_7_148)
                (= #xffffffff dst_reg_7_149)
                (= #x00000000 dst_reg_7_150)
                (= #x00000000 dst_reg_7_151)
                (= #x00000000 dst_reg_7_152)
                (= dst_reg_7_15 dst_reg_7_153)
                (= dst_reg_7_16 dst_reg_7_154)
                (= #x01 dst_reg_7_155)))
      (a!8 (=> (and (= or.cond85.i_7_53 #b0) (= tobool.not.i1.i_7_44 #b1))
               (and (ite (bvult src_reg1.sroa.45.0.copyload_7_41
                                #x0000000000000040)
                         (= cmp116.not.i_7_89 #b1)
                         (= cmp116.not.i_7_89 #b0)))))
      (a!9 (=> (= tobool.not.i1.i_7_44 #b0)
               (and (ite (bvsgt src_reg1.sroa.27.0.copyload_7_38
                                src_reg1.sroa.34.0.copyload_7_39)
                         (= cmp39.old.i_7_54 #b1)
                         (= cmp39.old.i_7_54 #b0))
                    (ite (bvugt src_reg1.sroa.37.0.copyload_7_40
                                src_reg1.sroa.45.0.copyload_7_41)
                         (= cmp42.old.i_7_55 #b1)
                         (= cmp42.old.i_7_55 #b0))
                    (ite (= cmp39.old.i_7_54 #b1)
                         (= or.cond86.i_7_57 #b1)
                         (= or.cond86.i_7_57 cmp42.old.i_7_55)))))
      (a!10 (=> (= tobool.not.i1.i_7_44 #b1)
                (and (ite (distinct src_reg1.sroa.27.0.copyload_7_38
                                    src_reg1.sroa.34.0.copyload_7_39)
                          (= cmp33.not.i_7_45 #b1)
                          (= cmp33.not.i_7_45 #b0))
                     (ite (distinct src_reg1.sroa.37.0.copyload_7_40
                                    src_reg1.sroa.45.0.copyload_7_41)
                          (= cmp36.not.i_7_46 #b1)
                          (= cmp36.not.i_7_46 #b0))
                     (ite (= cmp33.not.i_7_45 #b1)
                          (= or.cond83.i_7_48 #b1)
                          (= or.cond83.i_7_48 cmp36.not.i_7_46))
                     (ite (bvsgt src_reg1.sroa.27.0.copyload_7_38
                                 src_reg1.sroa.34.0.copyload_7_39)
                          (= cmp39.i_7_49 #b1)
                          (= cmp39.i_7_49 #b0))
                     (= or.cond84.i_7_50 (bvor cmp39.i_7_49 or.cond83.i_7_48))
                     (ite (bvugt src_reg1.sroa.37.0.copyload_7_40
                                 src_reg1.sroa.45.0.copyload_7_41)
                          (= cmp42.i_7_51 #b1)
                          (= cmp42.i_7_51 #b0))
                     (ite (= or.cond84.i_7_50 #b1)
                          (= or.cond85.i_7_53 #b1)
                          (= or.cond85.i_7_53 cmp42.i_7_51))))))
(let ((a!5 (and (=> a!1
                    (and (= #x00000001 src_reg_7_156)
                         (= src_reg_7_19 src_reg_7_157)
                         (= src_reg_7_20 src_reg_7_158)
                         (= src_reg_7_21 src_reg_7_159)
                         (= src_reg_7_22 src_reg_7_160)
                         (= src_reg_7_23 src_reg_7_161)
                         (= src_reg_7_24 src_reg_7_162)
                         (= src_reg_7_25 src_reg_7_163)
                         (= src_reg_7_26 src_reg_7_164)
                         (= src_reg_7_27 src_reg_7_165)
                         (= src_reg_7_28 src_reg_7_166)
                         (= src_reg_7_29 src_reg_7_167)
                         (= src_reg_7_30 src_reg_7_168)
                         (= src_reg_7_31 src_reg_7_169)
                         (= src_reg_7_32 src_reg_7_170)
                         (= src_reg_7_33 src_reg_7_171)
                         (= src_reg_7_34 src_reg_7_172)
                         (= src_reg_7_35 src_reg_7_173)
                         (= #x00000001 dst_reg_7_138)
                         (= dst_reg_7_1 dst_reg_7_139)
                         (= shr.i.i826.i_7_107 dst_reg_7_140)
                         (= shr5.i.i827.i_7_108 dst_reg_7_141)
                         (= or.i5.i.i877.i_7_130 dst_reg_7_142)
                         (= or8.i.i.i883.i_7_133 dst_reg_7_143)
                         (= cond23.i.i.i889.i_7_135 dst_reg_7_144)
                         (= cond35.i.i.i894.i_7_137 dst_reg_7_145)
                         (= conv.i.i.i849.i_7_120 dst_reg_7_146)
                         (= conv7.i.i.i856.i_7_124 dst_reg_7_147)
                         (= conv17.i.i.i861.i_7_125 dst_reg_7_148)
                         (= conv29.i.i.i867.i_7_127 dst_reg_7_149)
                         (= dst_reg_7_12 dst_reg_7_150)
                         (= dst_reg_7_13 dst_reg_7_151)
                         (= dst_reg_7_14 dst_reg_7_152)
                         (= dst_reg_7_15 dst_reg_7_153)
                         (= dst_reg_7_16 dst_reg_7_154)
                         (= dst_reg_7_17 dst_reg_7_155)))
                (=> a!2
                    (and (= #x00000001 src_reg_7_156)
                         (= src_reg_7_19 src_reg_7_157)
                         (= src_reg_7_20 src_reg_7_158)
                         (= src_reg_7_21 src_reg_7_159)
                         (= src_reg_7_22 src_reg_7_160)
                         (= src_reg_7_23 src_reg_7_161)
                         (= src_reg_7_24 src_reg_7_162)
                         (= src_reg_7_25 src_reg_7_163)
                         (= src_reg_7_26 src_reg_7_164)
                         (= src_reg_7_27 src_reg_7_165)
                         (= src_reg_7_28 src_reg_7_166)
                         (= src_reg_7_29 src_reg_7_167)
                         (= src_reg_7_30 src_reg_7_168)
                         (= src_reg_7_31 src_reg_7_169)
                         (= src_reg_7_32 src_reg_7_170)
                         (= src_reg_7_33 src_reg_7_171)
                         (= src_reg_7_34 src_reg_7_172)
                         (= src_reg_7_35 src_reg_7_173)
                         (= #x00000001 dst_reg_7_138)
                         (= dst_reg_7_1 dst_reg_7_139)
                         (= #x0000000000000000 dst_reg_7_140)
                         (= #xffffffffffffffff dst_reg_7_141)
                         (= #x8000000000000000 dst_reg_7_142)
                         (= #x7fffffffffffffff dst_reg_7_143)
                         (= #x0000000000000000 dst_reg_7_144)
                         (= #xffffffffffffffff dst_reg_7_145)
                         (= #x80000000 dst_reg_7_146)
                         (= #x7fffffff dst_reg_7_147)
                         (= #x00000000 dst_reg_7_148)
                         (= #xffffffff dst_reg_7_149)
                         (= dst_reg_7_12 dst_reg_7_150)
                         (= dst_reg_7_13 dst_reg_7_151)
                         (= dst_reg_7_14 dst_reg_7_152)
                         (= dst_reg_7_15 dst_reg_7_153)
                         (= dst_reg_7_16 dst_reg_7_154)
                         (= dst_reg_7_17 dst_reg_7_155)))
                (=> a!3 a!4)
                (=> (and (= or.cond86.i_7_57 #b0) (= tobool.not.i1.i_7_44 #b0))
                    a!4)
                (= dst_reg_7_138 dst_reg_7_174)
                (= dst_reg_7_139 dst_reg_7_175)
                (= dst_reg_7_140 dst_reg_7_176)
                (= dst_reg_7_141 dst_reg_7_177)
                (= dst_reg_7_142 dst_reg_7_178)
                (= dst_reg_7_143 dst_reg_7_179)
                (= dst_reg_7_144 dst_reg_7_180)
                (= dst_reg_7_145 dst_reg_7_181)
                (= dst_reg_7_146 dst_reg_7_182)
                (= dst_reg_7_147 dst_reg_7_183)
                (= dst_reg_7_148 dst_reg_7_184)
                (= dst_reg_7_149 dst_reg_7_185)
                (= dst_reg_7_150 dst_reg_7_186)
                (= dst_reg_7_151 dst_reg_7_187)
                (= dst_reg_7_152 dst_reg_7_188)
                (= dst_reg_7_153 dst_reg_7_189)
                (= dst_reg_7_154 dst_reg_7_190)
                (= dst_reg_7_155 dst_reg_7_191)
                (= src_reg_7_156 src_reg_7_192)
                (= src_reg_7_157 src_reg_7_193)
                (= src_reg_7_158 src_reg_7_194)
                (= src_reg_7_159 src_reg_7_195)
                (= src_reg_7_160 src_reg_7_196)
                (= src_reg_7_161 src_reg_7_197)
                (= src_reg_7_162 src_reg_7_198)
                (= src_reg_7_163 src_reg_7_199)
                (= src_reg_7_164 src_reg_7_200)
                (= src_reg_7_165 src_reg_7_201)
                (= src_reg_7_166 src_reg_7_202)
                (= src_reg_7_167 src_reg_7_203)
                (= src_reg_7_168 src_reg_7_204)
                (= src_reg_7_169 src_reg_7_205)
                (= src_reg_7_170 src_reg_7_206)
                (= src_reg_7_171 src_reg_7_207)
                (= src_reg_7_172 src_reg_7_208)
                (= src_reg_7_173 src_reg_7_209)))
      (a!7 (=> a!1
               (and (= dst_reg_7_2 i13.i822.i_7_103)
                    (= dst_reg_7_3 i15.i824.i_7_104)
                    (= sh_prom.i.i825.i_7_106
                       (bvand src_reg1.sroa.37.0.copyload_7_40
                              #x00000000000000ff))
                    (= shr.i.i826.i_7_107
                       (bvlshr i13.i822.i_7_103 sh_prom.i.i825.i_7_106))
                    (= shr5.i.i827.i_7_108
                       (bvlshr i15.i824.i_7_104 sh_prom.i.i825.i_7_106))
                    (= dst_reg_7_6 i18.i830.i_7_109)
                    (= shr.i831.i_7_110
                       (bvlshr i18.i830.i_7_109
                               src_reg1.sroa.45.0.copyload_7_41))
                    (= dst_reg_7_7 i19.i832.i_7_111)
                    (= shr4.i.i_7_112
                       (bvlshr i19.i832.i_7_111
                               src_reg1.sroa.37.0.copyload_7_40))
                    (= and.i.i.i847.i_7_118
                       (bvand shr5.i.i827.i_7_108 #x0000000080000000))
                    (= or.i.i.i848.i_7_119
                       (bvor and.i.i.i847.i_7_118 shr.i.i826.i_7_107))
                    (= conv.i.i.i849.i_7_120
                       ((_ extract 31 0) or.i.i.i848.i_7_119))
                    (= and5.i.i.i854.i_7_122
                       (bvand shr5.i.i827.i_7_108 #x000000007fffffff))
                    (= or6.i.i.i855.i_7_123
                       (bvor and5.i.i.i854.i_7_122 shr.i.i826.i_7_107))
                    (= conv7.i.i.i856.i_7_124
                       ((_ extract 31 0) or6.i.i.i855.i_7_123))
                    (= conv17.i.i.i861.i_7_125
                       ((_ extract 31 0) shr.i.i826.i_7_107))
                    (= and.i.i.i.i.i841.i31_7_126
                       (bvor shr5.i.i827.i_7_108 shr.i.i826.i_7_107))
                    (= conv29.i.i.i867.i_7_127
                       ((_ extract 31 0) and.i.i.i.i.i841.i31_7_126))
                    (= and.i4.i.i876.i_7_129
                       (bvand shr5.i.i827.i_7_108 #x8000000000000000))
                    (= or.i5.i.i877.i_7_130
                       (bvor and.i4.i.i876.i_7_129 shr.i.i826.i_7_107))
                    (= and7.i.i.i882.i_7_132
                       (bvand shr5.i.i827.i_7_108 #x7fffffffffffffff))
                    (= or8.i.i.i883.i_7_133
                       (bvor and7.i.i.i882.i_7_132 shr.i.i826.i_7_107))
                    (ite (bvugt shr.i831.i_7_110 shr.i.i826.i_7_107)
                         (= cmp19.i9.i.i888.i_7_134 #b1)
                         (= cmp19.i9.i.i888.i_7_134 #b0))
                    (ite (= cmp19.i9.i.i888.i_7_134 #b1)
                         (= cond23.i.i.i889.i_7_135 shr.i831.i_7_110)
                         (= cond23.i.i.i889.i_7_135 shr.i.i826.i_7_107))
                    (ite (bvult shr4.i.i_7_112 and.i.i.i.i.i841.i31_7_126)
                         (= cmp31.i11.i.i893.i_7_136 #b1)
                         (= cmp31.i11.i.i893.i_7_136 #b0))
                    (ite (= cmp31.i11.i.i893.i_7_136 #b1)
                         (= cond35.i.i.i894.i_7_137 shr4.i.i_7_112)
                         (= cond35.i.i.i894.i_7_137 and.i.i.i.i.i841.i31_7_126))))))
(let ((a!6 (=> (or a!1
                   a!2
                   (and (= or.cond86.i_7_57 #b0) (= tobool.not.i1.i_7_44 #b0))
                   a!3)
               a!5)))
  (and a!6
       a!7
       a!8
       a!9
       a!10
       (= dst_reg_7_0 dst_reg_7_0)
       (= dst_reg_7_1 dst_reg_7_1)
       (= dst_reg_7_2 dst_reg_7_2)
       (= dst_reg_7_3 dst_reg_7_3)
       (= dst_reg_7_4 dst_reg_7_4)
       (= dst_reg_7_5 dst_reg_7_5)
       (= dst_reg_7_6 dst_reg_7_6)
       (= dst_reg_7_7 dst_reg_7_7)
       (= dst_reg_7_8 dst_reg_7_8)
       (= dst_reg_7_9 dst_reg_7_9)
       (= dst_reg_7_10 dst_reg_7_10)
       (= dst_reg_7_11 dst_reg_7_11)
       (= dst_reg_7_12 dst_reg_7_12)
       (= dst_reg_7_13 dst_reg_7_13)
       (= dst_reg_7_14 dst_reg_7_14)
       (= dst_reg_7_15 dst_reg_7_15)
       (= dst_reg_7_16 dst_reg_7_16)
       (= dst_reg_7_17 dst_reg_7_17)
       (= src_reg_7_18 src_reg_7_18)
       (= src_reg_7_19 src_reg_7_19)
       (= src_reg_7_20 src_reg_7_20)
       (= src_reg_7_21 src_reg_7_21)
       (= src_reg_7_22 src_reg_7_22)
       (= src_reg_7_23 src_reg_7_23)
       (= src_reg_7_24 src_reg_7_24)
       (= src_reg_7_25 src_reg_7_25)
       (= src_reg_7_26 src_reg_7_26)
       (= src_reg_7_27 src_reg_7_27)
       (= src_reg_7_28 src_reg_7_28)
       (= src_reg_7_29 src_reg_7_29)
       (= src_reg_7_30 src_reg_7_30)
       (= src_reg_7_31 src_reg_7_31)
       (= src_reg_7_32 src_reg_7_32)
       (= src_reg_7_33 src_reg_7_33)
       (= src_reg_7_34 src_reg_7_34)
       (= src_reg_7_35 src_reg_7_35)
       (= src_reg_7_22 src_reg1.sroa.27.0.copyload_7_38)
       (= src_reg_7_23 src_reg1.sroa.34.0.copyload_7_39)
       (= src_reg_7_24 src_reg1.sroa.37.0.copyload_7_40)
       (= src_reg_7_25 src_reg1.sroa.45.0.copyload_7_41)
       (= src_reg_7_21 src_reg1.sroa.13.0.copyload_7_42)
       (ite (= src_reg1.sroa.13.0.copyload_7_42 #x0000000000000000)
            (= tobool.not.i1.i_7_44 #b1)
            (= tobool.not.i1.i_7_44 #b0)))))))

;{"dst_reg":["dst_reg_7_0","dst_reg_7_1",[""],["dst_reg_7_2","dst_reg_7_3"],"dst_reg_7_4","dst_reg_7_5","dst_reg_7_6","dst_reg_7_7","dst_reg_7_8","dst_reg_7_9","dst_reg_7_10","dst_reg_7_11","dst_reg_7_12","dst_reg_7_13","","","dst_reg_7_14","dst_reg_7_15","dst_reg_7_16"],"src_reg":["src_reg_7_18","src_reg_7_19",[""],["src_reg_7_20","src_reg_7_21"],"src_reg_7_22","src_reg_7_23","src_reg_7_24","src_reg_7_25","src_reg_7_26","src_reg_7_27","src_reg_7_28","src_reg_7_29","src_reg_7_30","src_reg_7_31","","","src_reg_7_32","src_reg_7_33","src_reg_7_34"]}
;{"dst_reg":["dst_reg_7_174","dst_reg_7_175",[""],["dst_reg_7_176","dst_reg_7_177"],"dst_reg_7_178","dst_reg_7_179","dst_reg_7_180","dst_reg_7_181","dst_reg_7_182","dst_reg_7_183","dst_reg_7_184","dst_reg_7_185","dst_reg_7_186","dst_reg_7_187","","","dst_reg_7_188","dst_reg_7_189","dst_reg_7_190"],"src_reg":["src_reg_7_192","src_reg_7_193",[""],["src_reg_7_194","src_reg_7_195"],"src_reg_7_196","src_reg_7_197","src_reg_7_198","src_reg_7_199","src_reg_7_200","src_reg_7_201","src_reg_7_202","src_reg_7_203","src_reg_7_204","src_reg_7_205","","","src_reg_7_206","src_reg_7_207","src_reg_7_208"]}
